Version identifier: 22.1.0.0 | 2022-03-09 | 1a383f8ce
CPXPARAM_Threads                                 1
CPXPARAM_MIP_Strategy_VariableSelect             3
CPXPARAM_TimeLimit                               599.999977113
1 of 1 MIP starts provided solutions.
MIP start 'm1' defined initial solution with objective 113.0000.
Tried aggregator 1 time.
MIP Presolve eliminated 325 rows and 1550 columns.
MIP Presolve modified 3 coefficients.
Reduced MIP has 2166 rows, 2170 columns, and 21286 nonzeros.
Reduced MIP has 2170 binaries, 0 generals, 0 SOSs, and 0 indicators.
Presolve time = 0.03 sec. (13.82 ticks)
Probing time = 0.00 sec. (3.11 ticks)
Tried aggregator 1 time.
Detecting symmetries...
Reduced MIP has 2166 rows, 2170 columns, and 21286 nonzeros.
Reduced MIP has 2170 binaries, 0 generals, 0 SOSs, and 0 indicators.
Presolve time = 0.02 sec. (12.26 ticks)
Probing time = 0.00 sec. (3.11 ticks)
Clique table members: 1235.
MIP emphasis: balance optimality and feasibility.
MIP search method: dynamic search.
Parallel mode: none, using 1 thread.
Root relaxation solution time = 0.03 sec. (22.25 ticks)

        Nodes                                         Cuts/
   Node  Left     Objective  IInf  Best Integer    Best Bound    ItCnt     Gap

*     0+    0                          113.0000     2170.0000              --- 
      0     0      310.0000   144      113.0000      310.0000      841  174.34%
*     0+    0                          310.0000      310.0000             0.00%
      0     0        cutoff            310.0000      310.0000      841    0.00%
Elapsed time = 0.16 sec. (103.09 ticks, tree = 0.01 MB, solutions = 2)

Root node processing (before b&c):
  Real time             =    0.16 sec. (103.24 ticks)
Sequential b&c:
  Real time             =    0.00 sec. (0.00 ticks)
                          ------------
Total (root+branch&cut) =    0.16 sec. (103.24 ticks)
Primal:	310
Dual:	310
Status:	Optimal
Time:	0.18
Sequence:
	5
	0
	5
	9
	5
	9
	5
	9
	5
	9
	9
	5
	9
	5
	9
	5
	9
	5
	9
	9
	5
	9
	9
	9
	9
	9
	9
	9
	9
	9
	9
	9
	9
	5
	9
	9
	9
	9
	9
	4
	6
	0
	9
	1
	0
	6
	4
	9
	1
	9
	9
	9
	5
	9
	9
	9
	9
	9
	9
	1
	0
	6
	4
	9
	9
	1
	9
	9
	9
	9
	9
	9
	9
	9
	1
	0
	1
	9
	0
	1
	9
	9
	0
	5
	9
	5
	0
	1
	9
	6
	0
	5
	9
	5
	9
	9
	0
	1
	4
	0
	1
	4
	9
	1
	9
	1
	4
	1
	4
	1
	0
	5
	9
	5
	9
	0
	5
	9
	5
	9
	1
	9
	9
	9
	9
	9
	9
	9
	9
	9
	9
	9
	9
	9
	9
	9
	5
	4
	0
	5
	4
	0
	1
	4
	0
	9
	5
	9
	9
	9
	0
	9
	4
	4
	0
	9
	1
	0
	9
	1
	9
	1
	0
	4
	4
	0
	4
	5
	0
	4
	1
	4
	4
	0
	4
	4
	1
	4
	4
	1
	4
	1
	0
	4
	4
	0
	1
	4
	0
	4
	6
	0
	4
	5
	9
	0
	5
	4
	0
	4
	5
	0
	1
	4
	1
	0
	4
	1
	4
	4
	0
	4
	9
	5
	0
	5
	4
	1
	4
	5
	0
	5
	4
	0
	5
	9
	9
	0
	9
	5
	9
	4
	4
	9
	1
	9
	9
	1
	9
	1
	9
	1
	9
	1
	9
	0
	1
	4
	1
	0
	1
	4
	4
	0
	5
	9
	5
	0
	9
	5
	4
	0
	9
	5
	0
	9
	5
	9
	5
	0
	1
	4
	4
	9
	5
	9
	5
	9
	1
	9
	1
	0
	9
	4
	0
	5
	4
	0
	4
	5
	0
	1
	4
	0
	6
	9
	1
	9
	1
	9
	1
	0
	4
	1
	0
	4
	5
	9
	2
	5
